Minimize
  obj: x0 + x1 + x2 + x3 + x4 + x5 + x6

Subject To
  c0: x0 + x1 + x2 + x3 + x4 + x5 + x6 = 85
  c1: x1 + x4 + x5 = 35
  c2: x0 + x1 + x4 + x5 = 43
  c3: x2 + x3 = 24
  c4: x2 + x3 + x5 + x6 = 45
  c5: x1 + x2 + x6 = 44

Bounds
  x0 >= 0
  x1 >= 0
  x2 >= 0
  x3 >= 0
  x4 >= 0
  x5 >= 0
  x6 >= 0

Generals
  x0 x1 x2 x3 x4 x5 x6

End
